(set-info :smt-lib-version 2.6)
(set-logic ALIA)
(set-info :source |piVC|)
(set-info :category "industrial")
(set-info :status unsat)
(declare-fun V_12 () Int)
(declare-fun V_11 () Int)
(declare-fun j () Int)
(declare-fun a_0 () (Array Int Int))
(declare-fun a () (Array Int Int))
(declare-fun i () Int)
(assert (let ((?v_0 (and true (>= V_11 0))) (?v_2 (= V_12 V_11)) (?v_1 (- i 1))) (and (and ?v_0 (and (>= j i) (and (and (<= 1 i) (and (< i V_12) (and (<= 0 j) (and (<= j i) (and (or (>= i (+ i 1)) (forall ((?V_21 Int)) (=> (and (<= 0 ?V_21) (<= ?V_21 i)) (forall ((?V_22 Int)) (=> (and (<= (+ i 1) ?V_22) (<= ?V_22 (- V_12 1))) (<= (select a ?V_21) (select a ?V_22))))))) (and (or (>= (- j 1) j) (forall ((?V_19 Int)) (=> (and (<= 0 ?V_19) (<= ?V_19 (- j 1))) (forall ((?V_20 Int)) (=> (and (<= j ?V_20) (<= ?V_20 j)) (<= (select a ?V_19) (select a ?V_20))))))) (and (forall ((?V_17 Int)) (=> (and (<= i ?V_17) (<= ?V_17 (- V_12 1))) (forall ((?V_18 Int)) (=> (and (<= i ?V_18) (<= ?V_18 ?V_17)) (<= (select a ?V_18) (select a ?V_17)))))) ?v_2))))))) ?v_0))) (or (> (- 1) ?v_1) (or (>= ?v_1 V_12) (or (and (< ?v_1 (+ ?v_1 1)) (exists ((?V_15 Int)) (and (and (<= 0 ?V_15) (<= ?V_15 ?v_1)) (exists ((?V_16 Int)) (and (and (<= (+ ?v_1 1) ?V_16) (<= ?V_16 (- V_12 1))) (> (select a ?V_15) (select a ?V_16))))))) (or (exists ((?V_13 Int)) (and (and (<= ?v_1 ?V_13) (<= ?V_13 (- V_12 1))) (exists ((?V_14 Int)) (and (and (<= ?v_1 ?V_14) (<= ?V_14 ?V_13)) (> (select a ?V_14) (select a ?V_13)))))) (not ?v_2))))))))
(check-sat)
(exit)
